1577
0	91	116	177	294
0	21	112	199	229
21	183	255	389	487
34	100	215	354	445
33	162	232	279	298
0	100	169	266	350
261	487	564	735	857
79	328	404	445	505
564	597	660	789	926
409	522	651	701	778
565	660	822	863	891
589	694	798	859	943
0	143	599	704	750
202	298	658	750	978
778	859	1028	1142	1216
225	778	820	1069	1181
787	829	1083	1109	1252
646	946	979	1109	1175
891	979	1048	1142	1216
975	1289	1334	1412	1481
